LengthSchedulingHorizon=3178;
nAttributes=5;
SetupCosts=[[0, 0, 0, 0, 0], [2, 24, 19, 16, 23], [20, 2, 15, 19, 17], [17, 25, 11, 14, 17], [22, 22, 18, 13, 22], [15, 15, 16, 23, 5]];
SetupTimes=[[0, 0, 0, 0, 0], [10, 16, 23, 18, 16], [14, 11, 17, 14, 21], [19, 15, 12, 15, 15], [19, 20, 24, 4, 19], [24, 25, 24, 22, 8]];
nMachines=5;
MinCap=[0, 0, 0, 0, 0];
MaxCap=[62, 20, 35, 56, 57];

initState=[2, 1, 5, 2, 3];
nShifts=3;
ShiftStartTimes = [[568, 786, 2782], [0, 79, 1839], [0, 226, 2883], [148, 298, 2426], [689, 1945, 2335]];
ShiftEndTimes = [[745, 2537, 3121], [0, 1425, 3013], [0, 2636, 3149], [281, 1919, 3006], [1758, 2257, 3154]];
nJobs=25;
EligibleMachines = [{4}, {2}, {2, 4}, {2, 3, 4}, {3, 4}, {2}, {5}, {3}, {2, 5}, {1}, {2, 4}, {2}, {1, 3}, {1, 2, 3, 5}, {4}, {3}, {1, 3}, {1}, {2}, {1, 4}, {1, 5}, {2, 5}, {2, 3}, {1}, {1, 3}];
EarliestStart=[469, 160, 189, 364, 33, 139, 319, 583, 239, 416, 421, 159, 362, 635, 111, 402, 255, 439, 623, 104, 302, 206, 40, 181, 495];
LatestEnd=[546, 191, 352, 510, 57, 366, 629, 752, 338, 445, 558, 390, 382, 1064, 385, 669, 565, 476, 768, 151, 456, 350, 123, 322, 564];
MinTime=[20, 25, 51, 39, 21, 55, 63, 55, 90, 27, 82, 64, 6, 100, 59, 99, 70, 13, 40, 46, 83, 41, 70, 36, 27];
MaxTime=[100, 100, 100, 100, 100, 100, 100, 100, 100, 100, 100, 100, 100, 100, 100, 100, 100, 100, 100, 100, 100, 100, 100, 100, 100];
JobSize=[7, 17, 1, 13, 16, 8, 5, 8, 12, 13, 12, 5, 13, 8, 8, 14, 17, 5, 4, 3, 9, 5, 20, 20, 4];
Attribute=[1, 5, 4, 2, 3, 5, 2, 5, 2, 3, 3, 1, 2, 5, 2, 4, 3, 5, 3, 1, 4, 2, 4, 1, 5];

upper_bound_integer_objective=162500;
mult_factor_total_runtime=50;
mult_factor_finished_toolate=2600;
mult_factor_total_setuptimes=0;
mult_factor_total_setupcosts=52;
running_time_bound=1282;
min_duration=6;
max_duration=100;
max_setup_time=25;
max_setup_cost=25;
